decision_x1=[0,4];
decision_x2=[0,4];
decision_x3=[0,4];
decision_x4=[0,4];
decision_x5=[0,4];
decision_x6=[0,4];
random_y1=[0,4];
random_y2=[0,4];
random_y3=[0,4];
constraint_x2_x1=[
0,1,1.6|
0,2,8.7|
0,3,0.71|
0,4,6.4|
1,0,6.3|
1,2,6.2|
1,3,2.1|
1,4,0.82|
2,0,1.8|
2,1,4.7|
2,3,9.6|
2,4,8.7|
3,0,5.6|
3,1,1.3|
3,2,0.13|
3,4,8.7|
4,0,9.9|
4,1,2.1|
4,2,2|
4,3,7|
];
constraint_x4_x2=[
0,1,7.5|
0,2,4.8|
0,3,7.2|
0,4,0.24|
1,0,6.7|
1,2,5.3|
1,3,9.6|
1,4,4.8|
2,0,5.5|
2,1,8.1|
2,3,5.4|
2,4,6.1|
3,0,2.2|
3,1,1.6|
3,2,9.6|
3,4,4.4|
4,0,2.1|
4,1,7.1|
4,2,0.26|
4,3,6.6|
];
constraint_x4_x3=[
0,1,4.9|
0,2,3|
0,3,1.4|
0,4,0.6|
1,0,4.1|
1,2,5.8|
1,3,9.3|
1,4,7.7|
2,0,2.4|
2,1,8.8|
2,3,4.5|
2,4,6.7|
3,0,6|
3,1,9.6|
3,2,9.9|
3,4,9.9|
4,0,6.5|
4,1,3.3|
4,2,8.1|
4,3,5.8|
];
constraint_x5_x2=[
0,1,8.2|
0,2,2.4|
0,3,3.1|
0,4,7.1|
1,0,2|
1,2,4.3|
1,3,6.7|
1,4,1.5|
2,0,5.2|
2,1,9|
2,3,4.8|
2,4,8.2|
3,0,9.4|
3,1,5.6|
3,2,9|
3,4,0.3|
4,0,0.43|
4,1,8.2|
4,2,5|
4,3,8.3|
];
constraint_x5_x3=[
0,1,3.2|
0,2,0.36|
0,3,2.6|
0,4,6.9|
1,0,3.5|
1,2,1.8|
1,3,5.5|
1,4,0.44|
2,0,6.7|
2,1,2.2|
2,3,7.2|
2,4,2.1|
3,0,5.4|
3,1,4.4|
3,2,5.7|
3,4,7|
4,0,7.7|
4,1,6.3|
4,2,7.8|
4,3,7.3|
];
constraint_x6_x2=[
0,1,9|
0,2,2.3|
0,3,5.2|
0,4,9.8|
1,0,3.9|
1,2,6.6|
1,3,5.2|
1,4,9.4|
2,0,1.5|
2,1,1.3|
2,3,5.6|
2,4,1.8|
3,0,1.3|
3,1,5.3|
3,2,2.2|
3,4,8.3|
4,0,7.5|
4,1,1.4|
4,2,7.5|
4,3,6.4|
];
constraint_x6_x3=[
0,1,2.9|
0,2,8.8|
0,3,3.4|
0,4,7.9|
1,0,4.3|
1,2,2.4|
1,3,1.2|
1,4,9.2|
2,0,8.5|
2,1,0.089|
2,3,5.1|
2,4,9.6|
3,0,6.8|
3,1,5.6|
3,2,8.3|
3,4,6.1|
4,0,1.7|
4,1,9|
4,2,1.7|
4,3,0.67|
];
constraint_x6_x4=[
0,1,5.7|
0,2,5.6|
0,3,6.5|
0,4,7.7|
1,0,4.1|
1,2,0.2|
1,3,4.4|
1,4,5.9|
2,0,9.3|
2,1,7.5|
2,3,1|
2,4,7.4|
3,0,3|
3,1,2.2|
3,2,9.3|
3,4,6.4|
4,0,9.4|
4,1,1.4|
4,2,8.1|
4,3,1.1|
];
constraint_x1_y1=[
0,0,9.4|
0,1,2.5|
0,2,7.5|
0,3,0.016|
0,4,4.7|
1,0,1.9|
1,1,4.8|
1,2,7.2|
1,3,5.3|
1,4,8.3|
2,0,2.3|
2,1,3.2|
2,2,2.5|
2,3,3|
2,4,8.2|
3,0,0.068|
3,1,1.5|
3,2,0.78|
3,3,3|
3,4,6.7|
4,0,7.7|
4,1,0.8|
4,2,5.5|
4,3,7.9|
4,4,5.3|
];
constraint_x2_y2=[
0,0,0.85|
0,1,9.9|
0,2,5.5|
0,3,9|
0,4,6.9|
1,0,8.7|
1,1,8|
1,2,4.9|
1,3,1.9|
1,4,4.6|
2,0,1.5|
2,1,8.5|
2,2,8.9|
2,3,0.97|
2,4,5.5|
3,0,0.88|
3,1,9.2|
3,2,2.3|
3,3,5.1|
3,4,2|
4,0,4.4|
4,1,7.1|
4,2,2.8|
4,3,9|
4,4,2.7|
];
constraint_x3_y3=[
0,0,0.82|
0,1,0.42|
0,2,2.2|
0,3,8.4|
0,4,2.1|
1,0,7.7|
1,1,9.8|
1,2,0.0038|
1,3,9|
1,4,7.1|
2,0,8.6|
2,1,5.6|
2,2,5.1|
2,3,1.7|
2,4,0.35|
3,0,4.8|
3,1,2.7|
3,2,8.6|
3,3,3.3|
3,4,0.06|
4,0,1.1|
4,1,5.2|
4,2,5.8|
4,3,3.5|
4,4,8.4|
];
initial_distribution_y1=[0.21,0.29,0.11,0.35,0.045];
initial_distribution_y2=[0.19,0.34,0.12,0.033,0.31];
initial_distribution_y3=[0.055,0.16,0.2,0.15,0.43];
transition_y1=[
0.22,0.19,0.29,0.19,0.11|
0.22,0.071,0.27,0.42,0.019|
0.077,0.21,0.26,0.25,0.2|
0.22,0.042,0.064,0.29,0.38|
0.095,0.075,0.49,0.31,0.025|
];
transition_y2=[
0.11,0.11,0.34,0.024,0.42|
0.14,0.26,0.28,0.066,0.26|
0.28,0.25,0.27,0.12,0.075|
0.32,0.024,0.29,0.17,0.18|
0.21,0.024,0.37,0.38,0.027|
];
transition_y3=[
0.34,0.011,0.22,0.078,0.35|
0.17,0.11,0.37,0.23,0.13|
0.058,0.28,0.22,0.39,0.058|
0.22,0.24,0.23,0.25,0.054|
0.053,0.26,0.17,0.24,0.28|
];
